; Copyright (c) 2026 The RIINA Authors. All rights reserved.
; Copyright (c) 2026 The RIINA Authors.
; Auto-generated from 02_FORMAL/coq/domains/mobile_os/NotificationSystem.v (22 assertions)
; Generated by scripts/generate-full-stack.py
; Module: NotificationSystem

(set-logic ALL)
(set-option :produce-models true)

; Priority (matches Coq: Inductive Priority)
(declare-datatypes ((Priority 0)) (((Critical) (High) (Normal) (Low))))

; NotificationState (matches Coq: Inductive NotificationState)
(declare-datatypes ((NotificationState 0)) (((Pending) (Delivered) (Read) (Dismissed) (Expired))))

; FocusMode (matches Coq: Inductive FocusMode)
(declare-datatypes ((FocusMode 0)) (((AllNotifications) (PriorityOnly) (CriticalOnly) (DoNotDisturb))))

; Notification (matches Coq: Record Notification)
(declare-datatypes ((Notification 0))
  (((mk-notification (notif_id Int) (notif_priority Priority) (notif_state NotificationState) (notif_created_at Time) (notif_ttl Time) (notif_delivered_at option)))))

; NotificationChannel (matches Coq: Record NotificationChannel)
(declare-datatypes ((NotificationChannel 0))
  (((mk-notification_channel (channel_id Int) (channel_enabled Bool) (channel_priority Priority) (channel_sound_volume Int) (channel_vibration Bool) (channel_badge Bool)))))

; NotificationGroup (matches Coq: Record NotificationGroup)
(declare-datatypes ((NotificationGroup 0))
  (((mk-notification_group (group_id Int) (group_notifications list) (group_summary option)))))

; NotificationAction (matches Coq: Record NotificationAction)
(declare-datatypes ((NotificationAction 0))
  (((mk-notification_action (action_id Int) (action_label Int) (action_validated Bool) (action_destructive Bool)))))

; NotifHistory (matches Coq: Record NotifHistory)
(declare-datatypes ((NotifHistory 0))
  (((mk-notif_history (history_notifications list) (history_max_size Int) (history_dismiss_tracked Bool)))))

; ExtNotification (matches Coq: Record ExtNotification)
(declare-datatypes ((ExtNotification 0))
  (((mk-ext_notification (ext_notif Notification) (ext_content_sanitized Bool) (ext_sound_volume Int) (ext_badge_count Int) (ext_expiry_time Int) (ext_delivery_confirmed Bool) (ext_is_silent Bool) (ext_channel option)))))

; Time (matches Coq: Definition Time)
(define-fun Time () Type nat)

; sent (matches Coq: Definition sent)
(define-fun sent ((n Notification)) Prop
  true)

; delivered (matches Coq: Definition delivered)
(define-fun delivered ((n Notification)) Prop
  true)

; expired (matches Coq: Definition expired)
(define-fun expired ((n Notification)) Prop
  true)

; eventually_state (matches Coq: Definition eventually_state)
(define-fun eventually_state ((n Notification) (target NotificationState)) Prop
  true)

; eventually_delivered_or_expired (matches Coq: Definition eventually_delivered_or_expired)
(define-fun eventually_delivered_or_expired ((n Notification)) Prop
  true)

; passes_focus_filter (matches Coq: Definition passes_focus_filter)
(define-fun passes_focus_filter ((n Notification) (mode FocusMode)) Bool
  true)

; notification_system_correct (matches Coq: Definition notification_system_correct)
(define-fun notification_system_correct ((n Notification)) Prop
  true)

; spam_threshold (matches Coq: Definition spam_threshold)
(define-fun spam_threshold () Int 10)

; is_spam (matches Coq: Definition is_spam)
(define-fun is_spam ((count_per_minute Int)) Bool
  true)

; notification_permission_granted (matches Coq: Definition notification_permission_granted)
(define-fun notification_permission_granted ((granted Bool)) Prop
  true)

; well_formed_notification (matches Coq: Definition well_formed_notification)
(define-fun well_formed_notification ((en ExtNotification)) Prop
  true)

; well_formed_group (matches Coq: Definition well_formed_group)
(define-fun well_formed_group ((g NotificationGroup)) Prop
  true)

; well_formed_history (matches Coq: Definition well_formed_history)
(define-fun well_formed_history ((h NotifHistory)) Prop
  true)

; notification_delivery_guaranteed (matches Coq: Theorem notification_delivery_guaranteed)
(assert (= true true)) ; notification_delivery_guaranteed [untranslatable]

; delivered_implies_sent (matches Coq: Theorem delivered_implies_sent)
(assert (= true true)) ; delivered_implies_sent [untranslatable]

; critical_passes_priority_filter (matches Coq: Theorem critical_passes_priority_filter)
(assert (forall ((n Notification)) (=> (= (notif_priority n) Critical) (= (passes_focus_filter n PriorityOnly) true)))) ; critical_passes_priority_filter

; critical_passes_critical_filter (matches Coq: Theorem critical_passes_critical_filter)
(assert (forall ((n Notification)) (=> (= (notif_priority n) Critical) (= (passes_focus_filter n CriticalOnly) true)))) ; critical_passes_critical_filter

; dnd_blocks_all (matches Coq: Theorem dnd_blocks_all)
(assert (forall ((n Notification)) (= (passes_focus_filter n DoNotDisturb) false))) ; dnd_blocks_all

; all_mode_passes_all (matches Coq: Theorem all_mode_passes_all)
(assert (forall ((n Notification)) (= (passes_focus_filter n AllNotifications) true))) ; all_mode_passes_all

; notification_permission_explicit (matches Coq: Theorem notification_permission_explicit)
(assert (= true true)) ; notification_permission_explicit [untranslatable]

; notification_content_sanitized (matches Coq: Theorem notification_content_sanitized)
(assert (= true true)) ; notification_content_sanitized [untranslatable]

; no_notification_spam (matches Coq: Theorem no_notification_spam)
(assert (= true true)) ; no_notification_spam [untranslatable]

; notification_priority_respected (matches Coq: Theorem notification_priority_respected)
(assert (= true true)) ; notification_priority_respected [untranslatable]

; do_not_disturb_enforced (matches Coq: Theorem do_not_disturb_enforced)
(assert (forall ((n Notification)) (= (passes_focus_filter n DoNotDisturb) false))) ; do_not_disturb_enforced

; notification_grouping_correct (matches Coq: Theorem notification_grouping_correct)
(assert (= true true)) ; notification_grouping_correct [untranslatable]

; notification_action_validated (matches Coq: Theorem notification_action_validated)
(assert (forall ((a NotificationAction)) (=> (= (action_validated a) true) (= (action_validated a) true)))) ; notification_action_validated

; notification_sound_bounded (matches Coq: Theorem notification_sound_bounded)
(assert (= true true)) ; notification_sound_bounded [untranslatable]

; notification_badge_accurate (matches Coq: Theorem notification_badge_accurate)
(assert (= true true)) ; notification_badge_accurate [untranslatable]

; notification_expiry_enforced (matches Coq: Theorem notification_expiry_enforced)
(assert (= true true)) ; notification_expiry_enforced [untranslatable]

; notification_channel_configurable (matches Coq: Theorem notification_channel_configurable)
(assert (= true true)) ; notification_channel_configurable [untranslatable]

; silent_notification_limited (matches Coq: Theorem silent_notification_limited)
(assert (= true true)) ; silent_notification_limited [untranslatable]

; notification_delivery_confirmed (matches Coq: Theorem notification_delivery_confirmed)
(assert (= true true)) ; notification_delivery_confirmed [untranslatable]

; notification_history_available (matches Coq: Theorem notification_history_available)
(assert (= true true)) ; notification_history_available [untranslatable]

; notification_dismiss_tracked (matches Coq: Theorem notification_dismiss_tracked)
(assert (forall ((h NotifHistory)) (=> (= (history_dismiss_tracked h) true) (= (history_dismiss_tracked h) true)))) ; notification_dismiss_tracked

; high_priority_passes_filter (matches Coq: Theorem high_priority_passes_filter)
(assert (forall ((n Notification)) (=> (= (notif_priority n) High) (= (passes_focus_filter n PriorityOnly) true)))) ; high_priority_passes_filter

; Verify all assertions are satisfiable
(check-sat)
(exit)
